NAME : netgen22-5-1
COMMENT : Generated using the function generateClusteredNetwork from the R-package netgen (Bossek,2015) - Number of clusters: 5
TYPE : TSP
DIMENSION : 22
EDGE_WEIGHT_TYPE : EUC_2D
NODE_COORD_SECTION
1 47.6586538571 50.2732378721
2 45.5759234486 46.2962945256
3 55.3077058076 48.4512597113
4 57.8796157554 47.3036270121
5 56.0682761086 54.1907328358
6 48.8697063347 39.9066125653
7 2.8373539551 75.7480637893
8 1.2794589195 74.3683524561
9 2.0236467469 82.4681446369
10 10.5539938854 84.3212908325
11 82.2448716822 15.7430871295
12 83.3285367271 19.4927252522
13 89.3909857588 3.539506207
14 79.3400497611 1.6114686953
15 60.6148091282 79.2112001674
16 75.4363657695 95.1913438135
17 66.2060029881 91.4167344037
18 65.2096805327 94.0745333008
19 15.4749997341 31.6606184068
20 21.7751876525 35.7169232051
21 19.2275571625 18.5898322715
22 12.6531179743 34.1530589665
EOF
